
--- Job bchfcnet.gms Start 02/09/22 13:45:27 34.3.0 rac355f3 WEX-WEI x86 64bit/MS Windows
--- Applying:
    C:\GAMS\34\gmsprmNT.txt
--- GAMS Parameters defined
    Input C:\Users\dekhi\Desktop\gamsworld\FCNetLib\test\bchfcnet.gms
    PageSize 0
    ScrDir C:\Users\dekhi\Desktop\gamsworld\FCNetLib\test\225a\
    SysDir C:\GAMS\34\
    LogOption 3
    ErrMsg 1
    ErrorLog 99
    IDE 1
    ResLim 3600
    LstTitleLeftAligned 1
Licensee: Eval License                                   S211214|0002AW-GEN
          Ostfalia Hochschule fuer angewandte Wissenschaften        DCE1645
          C:\Users\dekhi\Documents\GAMS\gamslice.txt
          License Admin: Mohamed Ali Dekhil, dekhil.medali@gmail.com       
          Evaluation license: Not for commercial or production use
GAMS 34.3.0   Copyright (C) 1987-2021 GAMS Development. All rights reserved
--- Starting compilation
--- bchfcnet.gms(34) 2 Mb
--- . decl.gms(15) 2 Mb
--- bchfcnet.gms(38) 2 Mb
--- . p50x864.inc(1783) 3 Mb
--- bchfcnet.gms(67) 3 Mb
--- . equs.gms(20) 3 Mb
--- bchfcnet.gms(97) 3 Mb
--- call rm -f bchout_i.gdx startcut.txt startheur.txt cuthist.gdx agap.txt rgap.txt cntfail.txt
--- bchfcnet.gms(118) 3 Mb
--- Starting execution: elapsed 0:00:00.091
--- bchfcnet.gms(1841) 4 Mb
--- GDX File (execute_unload) C:\Users\dekhi\Desktop\gamsworld\FCNetLib\test\net.gdx
--- bchfcnet.gms(1932) 4 Mb
--- GDXin=C:\Users\dekhi\Desktop\gamsworld\FCNetLib\test\points\p50x864.gdx
--- GDX File (execute_load) C:\Users\dekhi\Desktop\gamsworld\FCNetLib\test\points\p50x864.gdx
--- Generating MIP model master
--- bchfcnet.gms(1936) 5 Mb
---   915 rows  1,729 columns  5,185 non-zeroes
---   864 discrete-columns
--- Executing CPLEX (Solvelink=2): elapsed 0:00:00.127

IBM ILOG CPLEX   34.3.0 rac355f3 Released Feb 25, 2021 WEI x86 64bit/MS Window

--- GAMS/Cplex Link licensed for continuous and discrete problems.

Reading parameter(s) from "C:\Users\dekhi\Desktop\gamsworld\FCNetLib\test\cplex.op2"
>>  mipstart 1
Finished reading from "C:\Users\dekhi\Desktop\gamsworld\FCNetLib\test\cplex.op2"

--- Space for names approximately 0.05 Mb
--- Use option 'names no' to turn use of names off
--- GMO memory 0.81 Mb (peak 0.82 Mb)
--- Dictionary memory 0.00 Mb
--- Cplex 20.1.0.0 link memory 0.04 Mb (peak 0.18 Mb)
--- Starting Cplex

Version identifier: 20.1.0.0 | 2020-11-10 | 9bedb6d68
CPXPARAM_Threads                                 1
CPXPARAM_MIP_Display                             4
CPXPARAM_TimeLimit                               3600
CPXPARAM_MIP_Tolerances_AbsMIPGap                0
CPXPARAM_MIP_Tolerances_MIPGap                   0
Generic callback                                 0x50
Processing 1 MIP starts.
MIP start 'm1' defined solution with objective 19007.0000.
1 of 1 MIP starts provided solutions.
MIP start 'm1' defined initial solution with objective 19007.0000.
Tried aggregator 1 time.
MIP Presolve eliminated 31 rows and 1 columns.
MIP Presolve added 62 rows and 0 columns.
Reduced MIP has 945 rows, 1728 columns, and 3518 nonzeros.
Reduced MIP has 864 binaries, 0 generals, 0 SOSs, and 0 indicators.
Presolve time = 0.00 sec. (8.80 ticks)
Probing time = 0.00 sec. (0.19 ticks)
Tried aggregator 1 time.
Detecting symmetries...
Reduced MIP has 945 rows, 1728 columns, and 3518 nonzeros.
Reduced MIP has 864 binaries, 0 generals, 0 SOSs, and 0 indicators.
Presolve time = 0.00 sec. (8.91 ticks)
Probing time = 0.00 sec. (0.19 ticks)
MIP emphasis: balance optimality and feasibility.
MIP search method: dynamic search.
Parallel mode: none, using 1 thread.
Tried aggregator 1 time.
LP Presolve eliminated 833 rows and 833 columns.
Aggregator did 31 substitutions.
Reduced LP has 81 rows, 864 columns, and 1790 nonzeros.
Presolve time = 0.01 sec. (1.01 ticks)

Iteration log . . .
Iteration:     1   Dual objective     =          3344.000000
Initializing dual steep norms . . .
Root relaxation solution time = 0.01 sec. (2.05 ticks)

        Nodes                                         Cuts/
   Node  Left     Objective  IInf  Best Integer    Best Bound    ItCnt     Gap

*     0+    0                        19007.0000        0.0000           100.00%
Found incumbent of value 19007.000000 after 0.01 sec. (22.57 ticks)
      0     0    11284.6820    36    19007.0000    11284.6820       48   40.63%
      0     0    16785.5438    57    19007.0000     Cuts: 114      133   11.69%
      0     0    17908.0711    65    19007.0000     Cuts: 107      186    5.78%
      0     0    18353.2038    16    19007.0000      Cuts: 90      215    3.44%
      0     0    18510.4179    37    19007.0000      Cuts: 23      237    2.61%
      0     0    18629.8344    25    19007.0000      Cuts: 55      260    1.98%
Detecting symmetries...
      0     0    18692.4541    16    19007.0000      Cuts: 39      282    1.65%
      0     0    18762.4665    36    19007.0000      Cuts: 25      321    1.29%
      0     0    18858.5005    15    19007.0000      Cuts: 56      346    0.78%
      0     0    18862.7664    17    19007.0000      Cuts: 10      366    0.76%
      0     0    18887.0849    14    19007.0000      Cuts: 23      390    0.63%
      0     0    18894.8487    15    19007.0000      Cuts: 16      405    0.59%
      0     0    18975.5004    14    19007.0000      Cuts: 21      418    0.17%
      0     0    18976.2723    16    19007.0000       Cuts: 8      423    0.16%
      0     0    18978.4436    12    19007.0000       Cuts: 4      428    0.15%
Detecting symmetries...
      0     1    18978.4436    12    19007.0000    18978.6094      428    0.15%
Elapsed time = 0.42 sec. (401.04 ticks, tree = 0.01 MB, solutions = 1)

Cover cuts applied:  36
Implied bound cuts applied:  6
Flow cuts applied:  68
Mixed integer rounding cuts applied:  59
Flow path cuts applied:  29
Multi commodity flow cuts applied:  6
Lift and project cuts applied:  1
Gomory fractional cuts applied:  29

Root node processing (before b&c):
  Real time             =    0.42 sec. (401.03 ticks)
Sequential b&c:
  Real time             =    0.00 sec. (3.42 ticks)
                          ------------
Total (root+branch&cut) =    0.42 sec. (404.45 ticks)

--- MIP status (101): integer optimal solution.
--- Cplex Time: 0.42sec (det. 404.45 ticks)

--- Fixing integer variables and solving final LP...

Version identifier: 20.1.0.0 | 2020-11-10 | 9bedb6d68
CPXPARAM_Advance                                 2
CPXPARAM_Threads                                 1
CPXPARAM_MIP_Display                             4
CPXPARAM_TimeLimit                               3600
CPXPARAM_MIP_Tolerances_AbsMIPGap                0
CPXPARAM_MIP_Tolerances_MIPGap                   0
Tried aggregator 1 time.
LP Presolve eliminated 914 rows and 1729 columns.
All rows and columns eliminated.
Presolve time = 0.00 sec. (0.60 ticks)

--- Fixed MIP status (1): optimal.
--- Cplex Time: 0.00sec (det. 1.01 ticks)


Proven optimal solution
MIP Solution:        19007.000000    (449 iterations, 6 nodes)
Final Solve:         19007.000000    (0 iterations)

Best possible:       19007.000000
Absolute gap:            0.000000
Relative gap:            0.000000

--- Reading solution for model master
*** Status: Normal completion
--- Job bchfcnet.gms Stop 02/09/22 13:45:28 elapsed 0:00:00.605
